Problem:    
Rows:       256
Columns:    89 (72 integer, 72 binary)
Non-zeros:  960
Status:     INTEGER OPTIMAL
Objective:  value = 40.266029 (MINimum)

   No.   Row name        Activity     Lower bound   Upper bound
------ ------------    ------------- ------------- -------------
     1 r.5                   1040.27             0               
     2 r.6                   -976.87      -991.214               
     3 r.7                    40.266             0               
     4 r.8                  -987.027      -993.401               
     5 r.9                    40.266             0               
     6 r.10                 -983.309      -989.683               
     7 r.11                  1040.27             0               
     8 r.12                   -977.3      -992.956               
     9 r.13                   40.266             0               
    10 r.14                  32.1739      -985.777               
    11 r.15                  1040.27             0               
    12 r.16                 -967.826      -990.526               
    13 r.17                   40.266             0               
    14 r.18                 -986.061      -992.435               
    15 r.19                  1040.27             0               
    16 r.20                 -984.344      -993.802               
    17 r.21                  1040.27             0               
    18 r.22                 -986.893      -993.267               
    19 r.23                   40.266             0               
    20 r.24                  24.2482      -995.013               
    21 r.25                  1040.27             0               
    22 r.26                 -997.335      -997.335               
    23 r.27                   40.266             0               
    24 r.28                  9.72863      -979.799               
    25 r.29                  1040.27             0               
    26 r.30                 -959.734      -982.864               
    27 r.31                   40.266             0               
    28 r.32                   40.266      -992.157               
    29 r.33                   40.266             0               
    30 r.34                   40.266      -982.878               
    31 r.35                  1040.27             0               
    32 r.36                 -959.734      -991.908               
    33 r.37                        1             1             = 
    34 r.38                        1             1             = 
    35 r.39                        1             1             = 
    36 r.40                        1             1             = 
    37 r.41                        1             1             = 
    38 r.42                        1             1             = 
    39 r.43                        1             1             = 
    40 r.44                        1             1             = 
    41 r.45                     1001             2               
    42 r.46                    -1001         -1001               
    43 r.47                  993.562      -989.683               
    44 r.48                     1001             2               
    45 r.49                    -1001         -1001               
    46 r.50                  3009.73      -992.956               
    47 r.51                     1001             2               
    48 r.52                    -1001         -1001               
    49 r.53                  2009.04      -985.777               
    50 r.54                     1001             2               
    51 r.55                    -1001         -1001               
    52 r.56                   3019.2      -990.526               
    53 r.57                     1001             2               
    54 r.58                    -1001         -1001               
    55 r.59                  990.809      -992.435               
    56 r.60                     1001             2               
    57 r.61                    -1001         -1001               
    58 r.62                  3002.68      -993.802               
    59 r.63                        2             2               
    60 r.64                       -2         -1001               
    61 r.65                 -10.0226      -993.267               
    62 r.66                     1000             2               
    63 r.67                    -1000         -1001               
    64 r.68                  3011.28      -995.013               
    65 r.69                 -983.244      -991.214               
    66 r.70                 -993.401      -993.401               
    67 r.71                 -983.244      -991.214               
    68 r.72                 -993.401      -993.401               
    69 r.73                 -982.864      -982.864               
    70 r.74                  17.1361      -992.157               
    71 r.75                  27.2935      -982.864               
    72 r.76                  1027.29      -992.157               
    73 r.77                     1001             2               
    74 r.78                    -1001         -1001               
    75 r.79                  2017.14      -982.878               
    76 r.80                     1001             2               
    77 r.81                    -1001         -1001               
    78 r.82                  3027.29      -991.908               
    79 r.83                     1001             2               
    80 r.84                    -1001         -1001               
    81 r.85                  3006.44        8.7862               
    82 r.86                     1001             2               
    83 r.87                    -1001         -1001               
    84 r.88                  990.272       6.59857               
    85 r.89                     1000             2               
    86 r.90                    -1000         -1001               
    87 r.91                  3015.48      -985.777               
    88 r.92                        2             2               
    89 r.93                       -2         -1001               
    90 r.94                 -990.526      -990.526               
    91 r.95                     1000             2               
    92 r.96                    -1000         -1001               
    93 r.97                  1997.25      -992.435               
    94 r.98                        2             2               
    95 r.99                       -2         -1001               
    96 r.100                -7.04383      -993.802               
    97 r.101                    1001             2               
    98 r.102                   -1001         -1001               
    99 r.103                 2996.42      -993.267               
   100 r.104                    1001             2               
   101 r.105                   -1001         -1001               
   102 r.106                 2001.55      -995.013               
   103 r.107                -989.683      -989.683               
   104 r.108                -983.674      -992.956               
   105 r.109                -989.683      -989.683               
   106 r.110                -983.674      -992.956               
   107 r.111                    1001             2               
   108 r.112                   -1001         -1001               
   109 r.113                 3023.57      -982.864               
   110 r.114                    1001             2               
   111 r.115                   -1001         -1001               
   112 r.116                 2017.57      -992.157               
   113 r.117                 1023.57      -982.878               
   114 r.118                 23.5746      -991.908               
   115 r.119                 17.5658      -982.878               
   116 r.120                -982.434      -991.908               
   117 r.121                    1001             2               
   118 r.122                   -1001         -1001               
   119 r.123                 1990.96        8.7862               
   120 r.124                    1001             2               
   121 r.125                   -1001         -1001               
   122 r.126                 980.799       6.59857               
   123 r.127                    1000             2               
   124 r.128                   -1000         -1001               
   125 r.129                 984.518       10.3175               
   126 r.130                       2             2               
   127 r.131                      -2         -1001               
   128 r.132                 990.526       7.04383               
   129 r.133                 1018.24      -985.777               
   130 r.134                 18.2351      -990.526               
   131 r.135                 16.5175      -985.777               
   132 r.136                -983.482      -990.526               
   133 r.137                    1001             2               
   134 r.138                   -1001         -1001               
   135 r.139                 1980.93      -993.267               
   136 r.140                    1001             2               
   137 r.141                   -1001         -1001               
   138 r.142                 1992.07      -995.013               
   139 r.143                 25.7999      -985.777               
   140 r.144                  -974.2      -990.526               
   141 r.145                 25.7999      -985.777               
   142 r.146                  -974.2      -990.526               
   143 r.147                    1001             2               
   144 r.148                   -1001         -1001               
   145 r.149                 2008.09      -982.864               
   146 r.150                    1001             2               
   147 r.151                   -1001         -1001               
   148 r.152                 2008.09      -992.157               
   149 r.153                 8.09215      -982.878               
   150 r.154                -991.908      -991.908               
   151 r.155                 8.09215      -982.878               
   152 r.156                -991.908      -991.908               
   153 r.157                    1001             2               
   154 r.158                   -1001         -1001               
   155 r.159                 3009.19        8.7862               
   156 r.160                    1001             2               
   157 r.161                   -1001         -1001               
   158 r.162                 997.316       6.59857               
   159 r.163                    1000             2               
   160 r.164                   -1000         -1001               
   161 r.165                 2002.75       10.3175               
   162 r.166                       2             2               
   163 r.167                      -2         -1001               
   164 r.168                 7.04383       7.04383               
   165 r.169                    1001             2               
   166 r.170                   -1001         -1001               
   167 r.171                 2999.17      -993.267               
   168 r.172                    1001             2               
   169 r.173                   -1001         -1001               
   170 r.174                 2008.59      -995.013               
   171 r.175                -992.435      -992.435               
   172 r.176                -990.718      -993.802               
   173 r.177                -992.435      -992.435               
   174 r.178                -990.718      -993.802               
   175 r.179                    1001             2               
   176 r.180                   -1001         -1001               
   177 r.181                 3026.33      -982.864               
   178 r.182                    1001             2               
   179 r.183                   -1001         -1001               
   180 r.184                 2024.61      -992.157               
   181 r.185                 1026.33      -982.878               
   182 r.186                 26.3273      -991.908               
   183 r.187                 24.6097      -982.878               
   184 r.188                 -975.39      -991.908               
   185 r.189                       2             2               
   186 r.190                      -2         -1001               
   187 r.191                  8.7862        8.7862               
   188 r.192                    1000             2               
   189 r.193                   -1000         -1001               
   190 r.194                 989.843       6.59857               
   191 r.195                    1001             2               
   192 r.196                   -1001         -1001               
   193 r.197                 1002.35       10.3175               
   194 r.198                    1001             2               
   195 r.199                   -1001         -1001               
   196 r.200                 1999.57       7.04383               
   197 r.201                    1001             2               
   198 r.202                   -1001         -1001               
   199 r.203                 2017.83       14.2228               
   200 r.204                    1001             2               
   201 r.205                   -1001         -1001               
   202 r.206                 2009.04        9.4737               
   203 r.207                    1001             2               
   204 r.208                   -1001         -1001               
   205 r.209                 999.595        7.5648               
   206 r.210                    1001             2               
   207 r.211                   -1001         -1001               
   208 r.212                 1992.53       6.19787               
   209 r.213                -993.267      -993.267               
   210 r.214                 17.8742      -995.013               
   211 r.215                -993.267      -993.267               
   212 r.216                 17.8742      -995.013               
   213 r.217                -974.078      -982.864               
   214 r.218                 25.9223      -992.157               
   215 r.219                -982.864      -982.864               
   216 r.220                 17.1361      -992.157               
   217 r.221                 25.9223      -982.878               
   218 r.222                -974.078      -991.908               
   219 r.223                 17.1361      -982.878               
   220 r.224                -982.864      -991.908               
   221 r.225                    1001             2               
   222 r.226                   -1001         -1001               
   223 r.227                 976.425       10.3175               
   224 r.228                    1001             2               
   225 r.229                   -1001         -1001               
   226 r.230                 1982.43       7.04383               
   227 r.231                    1001             2               
   228 r.232                   -1001         -1001               
   229 r.233                 1991.91       14.2228               
   230 r.234                    1001             2               
   231 r.235                   -1001         -1001               
   232 r.236                 1991.91        9.4737               
   233 r.237                    1001             2               
   234 r.238                   -1001         -1001               
   235 r.239                 973.673        7.5648               
   236 r.240                    1001             2               
   237 r.241                   -1001         -1001               
   238 r.242                 1975.39       6.19787               
   239 r.243                    1001             2               
   240 r.244                   -1001         -1001               
   241 r.245                    2000      -982.878               
   242 r.246                    1001             2               
   243 r.247                   -1001         -1001               
   244 r.248                    2000      -991.908               
   245 r.249                    1001             2               
   246 r.250                   -1001         -1001               
   247 r.251                 1982.86        8.7862               
   248 r.252                    1001             2               
   249 r.253                   -1001         -1001               
   250 r.254                 972.707       6.59857               
   251 r.255                    1001             2               
   252 r.256                   -1001         -1001               
   253 r.257                    2000       17.1361               
   254 r.258                    1001             2               
   255 r.259                   -1001         -1001               
   256 r.260                    2000       7.84293               

   No. Column name       Activity     Lower bound   Upper bound
------ ------------    ------------- ------------- -------------
     1 tt                     40.266             0               
     2 s_1_1        *              1             0             1 
     3 t_1_1                 17.1361             0               
     4 s_1_7        *              1             0             1 
     5 s_2_1        *              0             0             1 
     6 t_2_1                 1027.29             0               
     7 s_2_7        *              0             0             1 
     8 s_1_2        *              0             0             1 
     9 t_1_2                 1023.57             0               
    10 s_1_8        *              0             0             1 
    11 s_2_2        *              1             0             1 
    12 t_2_2                 17.5658             0               
    13 s_2_8        *              1             0             1 
    14 s_1_3        *              0             0             1 
    15 t_1_3                 8.09215             0               
    16 s_2_3        *              1             0             1 
    17 t_2_3                 8.09215             0               
    18 s_1_4        *              0             0             1 
    19 t_1_4                 1026.33             0               
    20 s_2_4        *              1             0             1 
    21 t_2_4                 24.6097             0               
    22 s_1_5        *              1             0             1 
    23 t_1_5                 25.9223             0               
    24 s_2_5        *              0             0             1 
    25 t_2_5                 17.1361             0               
    26 s_1_6        *              1             0             1 
    27 t_1_6                 33.8921             0               
    28 s_2_6        *              0             0             1 
    29 t_2_6                 33.8921             0               
    30 t_1_7                       0             0               
    31 t_2_7                       0             0               
    32 t_1_8                       0             0               
    33 t_2_8                       0             0               
    34 r_1_1_2      *              1             0             1 
    35 u_1_1_2      *              0             0             1 
    36 r_2_1_2      *              1             0             1 
    37 u_2_1_2      *              0             0             1 
    38 r_1_1_3      *              1             0             1 
    39 u_1_1_3      *              0             0             1 
    40 r_2_1_3      *              1             0             1 
    41 u_2_1_3      *              0             0             1 
    42 r_1_1_4      *              1             0             1 
    43 u_1_1_4      *              0             0             1 
    44 r_2_1_4      *              1             0             1 
    45 u_2_1_4      *              0             0             1 
    46 r_1_1_5      *              0             0             1 
    47 u_1_1_5      *              0             0             1 
    48 r_2_1_5      *              1             0             1 
    49 u_2_1_5      *              0             0             1 
    50 r_1_1_8      *              1             0             1 
    51 u_1_1_8      *              0             0             1 
    52 r_2_1_8      *              1             0             1 
    53 u_2_1_8      *              0             0             1 
    54 r_1_2_3      *              1             0             1 
    55 u_1_2_3      *              0             0             1 
    56 r_2_2_3      *              0             0             1 
    57 u_2_2_3      *              1             0             1 
    58 r_1_2_4      *              1             0             1 
    59 u_1_2_4      *              0             0             1 
    60 r_2_2_4      *              0             0             1 
    61 u_2_2_4      *              0             0             1 
    62 r_1_2_5      *              1             0             1 
    63 u_1_2_5      *              0             0             1 
    64 r_2_2_5      *              1             0             1 
    65 u_2_2_5      *              0             0             1 
    66 r_1_2_7      *              1             0             1 
    67 u_1_2_7      *              0             0             1 
    68 r_2_2_7      *              1             0             1 
    69 u_2_2_7      *              0             0             1 
    70 r_1_3_5      *              1             0             1 
    71 u_1_3_5      *              0             0             1 
    72 r_2_3_5      *              1             0             1 
    73 u_2_3_5      *              0             0             1 
    74 r_1_3_7      *              1             0             1 
    75 u_1_3_7      *              0             0             1 
    76 r_2_3_7      *              1             0             1 
    77 u_2_3_7      *              0             0             1 
    78 r_1_4_5      *              1             0             1 
    79 u_1_4_5      *              0             0             1 
    80 r_2_4_5      *              1             0             1 
    81 u_2_4_5      *              0             0             1 
    82 r_1_4_7      *              1             0             1 
    83 u_1_4_7      *              0             0             1 
    84 r_2_4_7      *              1             0             1 
    85 u_2_4_7      *              0             0             1 
    86 r_1_7_8      *              1             0             1 
    87 u_1_7_8      *              0             0             1 
    88 r_2_7_8      *              1             0             1 
    89 u_2_7_8      *              0             0             1 

Integer feasibility conditions:

KKT.PE: max.abs.err = 4.55e-13 on row 87
        max.rel.err = 1.09e-16 on row 22
        High quality

KKT.PB: max.abs.err = 2.27e-13 on row 22
        max.rel.err = 2.28e-16 on row 22
        High quality

End of output
